; benchmark generated from python API
(set-info :status unknown)
(declare-datatypes ((RealState 0)) (((RMk1 (rval1 Real)) (RMk2 (rval2 Real)))))
 (assert
 (forall ((|v9:0| Real) )(exists ((|v8:1_st| RealState) (val!1455 Real) )(forall ((|v7:2| Real) )(exists ((|v6:3_st| RealState) (val!1456 Real) )(forall ((|v5:4| Real) )(exists ((|v4:5_st| RealState) (val!1457 Real) )(forall ((|v3:6| Real) )(exists ((|v2:7_st| RealState) (val!1458 Real) )(forall ((|v1:8| Real) )(exists ((|v0:9_st| RealState) (val!1459 Real) )(let ((?x682 (- 5.0)))
 (let ((?x548 (rval2 |v0:9_st|)))
 (let ((?x1419 (* 17.0 ?x548)))
 (let ((?x118 (- 16.0)))
 (let (($x793 (<= (+ (+ (* 17.0 |v1:8|) (* 9.0 |v5:4|)) (* (- 7.0) |v3:6|)) ?x118)))
 (let (($x589 (or $x793 (<= (+ (+ (* (- 11.0) |v9:0|) (* (- 14.0) |v5:4|)) ?x1419) ?x682))))
 (let ((?x975 (+ (+ (* (- 14.0) |v5:4|) (* 15.0 (rval2 |v4:5_st|))) (* (- 19.0) |v3:6|))))
 (let ((?x1372 (- 8.0)))
 (let ((?x1274 (+ (+ (* 19.0 |v3:6|) (* (- 4.0) |v5:4|)) (* (- 19.0) (rval2 |v8:1_st|)))))
 (let ((?x54 (- 17.0)))
 (let (($x1373 (<= (+ (+ (* (- 6.0) |v3:6|) (* 12.0 |v3:6|)) (* (- 1.0) |v9:0|)) ?x54)))
 (let ((?x734 (- 4.0)))
 (let ((?x1380 (* 16.0 |v3:6|)))
 (let (($x1202 (<= (+ (+ (* 16.0 (rval2 |v8:1_st|)) (* 11.0 (rval2 |v6:3_st|))) ?x1380) ?x734)))
 (let ((?x448 (- 7.0)))
 (let ((?x440 (* 4.0 |v3:6|)))
 (let (($x1297 (<= (+ (+ (* (- 11.0) |v1:8|) (* (- 18.0) (rval2 |v2:7_st|))) ?x440) ?x448)))
 (let ((?x1268 (+ (+ (* (- 13.0) (rval2 |v8:1_st|)) (rval2 |v6:3_st|)) (* (- 19.0) (rval2 |v4:5_st|)))))
 (let (($x795 (and (or (and (<= ?x1268 11.0) $x1297) (or $x1202 $x1373)) (or (and (<= ?x1274 ?x1372) (<= ?x975 10.0)) $x589))))
 (let ((?x625 (- 9.0)))
 (let ((?x1323 (+ (+ (* 10.0 (rval2 |v2:7_st|)) (* ?x1372 ?x548)) (* 0.0 (rval2 |v4:5_st|)))))
 (let (($x646 (<= (+ (+ (* (- 19.0) |v9:0|) (* ?x1372 (rval2 |v8:1_st|))) (* 20.0 ?x548)) 7.0)))
 (let (($x141 (<= (+ (+ (* ?x118 |v5:4|) (* 4.0 (rval2 |v8:1_st|))) (* ?x118 |v1:8|)) 4.0)))
 (let (($x642 (<= (+ (+ (* 16.0 (rval2 |v6:3_st|)) (* (- 15.0) (rval2 |v6:3_st|))) ?x1380) 6.0)))
 (let ((?x769 (rval2 |v6:3_st|)))
 (let ((?x842 (* 0.0 ?x769)))
 (let ((?x1096 (+ (+ (* ?x734 (rval2 |v8:1_st|)) (* ?x625 |v3:6|)) (* (- 6.0) (rval2 |v4:5_st|)))))
 (let (($x719 (and (<= ?x1096 ?x625) (<= (+ (+ (* (- 1.0) |v3:6|) (* (- 10.0) |v7:2|)) ?x842) 0.0))))
 (let (($x494 (or (or (<= (+ (+ (rval2 |v2:7_st|) (* 2.0 |v7:2|)) |v5:4|) ?x625) $x719) (and (and $x642 $x141) (or $x646 (<= ?x1323 ?x625))))))
 (let ((?x1149 (- 19.0)))
 (let ((?x672 (rval2 |v8:1_st|)))
 (let ((?x133 (* 17.0 ?x672)))
 (let (($x974 (and (<= (+ (+ (* (- 10.0) ?x672) (* 7.0 ?x672)) ?x133) ?x1149) (<= (+ (+ (* ?x625 ?x548) ?x548) (* (- 14.0) (rval2 |v2:7_st|))) 20.0))))
 (let ((?x855 (rval2 |v2:7_st|)))
 (let ((?x630 (- 1.0)))
 (let ((?x971 (* ?x630 ?x855)))
 (let (($x1113 (or (<= (+ (+ (* (- 2.0) |v9:0|) (* ?x734 ?x769)) ?x971) 20.0) $x974)))
 (let (($x722 (<= (+ (+ (* 9.0 |v1:8|) (* 15.0 ?x769)) (* (- 11.0) |v5:4|)) 16.0)))
 (let (($x87 (<= (+ (+ (* 6.0 ?x672) (* 16.0 (rval2 |v4:5_st|))) (* ?x734 |v5:4|)) 10.0)))
 (let (($x821 (or (<= (+ (+ (* ?x54 ?x672) (* ?x118 |v5:4|)) (* 20.0 |v5:4|)) 13.0) (<= (+ (+ (* 5.0 ?x672) (* ?x625 ?x769)) (* ?x682 |v5:4|)) 18.0))))
 (let (($x1223 (and (<= (+ (+ (* (- 6.0) |v5:4|) ?x842) (* ?x118 |v1:8|)) 14.0) (<= (+ (+ (* 11.0 |v5:4|) (* 10.0 ?x672)) (* 17.0 ?x769)) 18.0))))
 (let (($x397 (<= (+ (+ (* (- 14.0) ?x855) (* ?x1372 |v7:2|)) (* (- 13.0) ?x855)) 13.0)))
 (let (($x1302 (<= (+ (+ (* 13.0 |v1:8|) (* ?x734 (rval2 |v4:5_st|))) (* (- 6.0) |v3:6|)) 10.0)))
 (let (($x851 (or (<= (+ (+ (* 10.0 |v9:0|) (* 6.0 |v3:6|)) (* 12.0 ?x548)) 3.0) $x1302)))
 (let (($x1195 (or (<= (+ (+ (* 14.0 ?x769) (* 7.0 |v5:4|)) (* 12.0 |v3:6|)) 9.0) (<= (+ (+ ?x971 (* 10.0 |v3:6|)) (* (- 14.0) |v1:8|)) (- 10.0)))))
 (let (($x1037 (and (or (and $x1195 $x851) (or $x397 $x1223)) (or (or $x821 (or $x87 $x722)) $x1113))))
 (let (($x945 (not (= |v0:9_st| (RMk1 val!1459)))))
 (let (($x729 (not (= |v2:7_st| (RMk1 val!1458)))))
 (let (($x655 (not (= |v4:5_st| (RMk1 val!1457)))))
 (let (($x501 (not (= |v6:3_st| (RMk1 val!1456)))))
 (let (($x699 (not (= |v8:1_st| (RMk1 val!1455)))))
 (and $x699 $x501 $x655 $x729 $x945 (or $x1037 (or $x494 $x795)))))))))))))))))))))))))))))))))))))))))))))))))))))))
 )
 )
 )
 )
 )
 )
 )
 )
 )
 )
(check-sat)
